(declare-fun var0 () String)
(assert (str.in.re var0 (re.++ (re.+ (re.* (str.to.re ">>>"))) (re.++ (re.+ (re.* (str.to.re "=="))) (re.++ (re.* (re.+ (str.to.re "<<<"))) (re.++ (re.union (re.* (str.to.re "//")) (re.union (str.to.re ":::") (str.to.re ";"))) (re.++ (re.+ (re.+ (str.to.re ".."))) (re.++ (re.+ (re.union (str.to.re ",,,") (str.to.re "-"))) (re.++ (re.+ (re.+ (str.to.re "+"))) (re.++ (re.union (re.+ (str.to.re ")))")) (re.* (str.to.re "**"))) (re.++ (re.+ (re.* (str.to.re "(("))) (re.++ (re.+ (re.union (str.to.re "&&") (str.to.re "'''"))) (re.++ (re.+ (re.union (str.to.re "$$$") (str.to.re "%%%"))) (re.++ (re.* (re.+ (str.to.re "###"))) (re.++ (re.union (re.* (str.to.re "ZZZ")) (re.union (str.to.re "!!!") (str.to.re """"""""))) (re.++ (re.* (re.+ (str.to.re "Y"))) (re.++ (re.+ (re.+ (str.to.re "X"))) (re.++ (re.union (re.* (str.to.re "UU")) (re.union (str.to.re "VVV") (str.to.re "WW"))) (re.++ (re.union (re.* (str.to.re "RR")) (re.union (str.to.re "SS") (str.to.re "TT"))) (re.++ (re.union (re.+ (str.to.re "P")) (re.* (str.to.re "QQQ"))) (re.++ (re.+ (re.+ (str.to.re "O"))) (re.++ (re.* (re.* (str.to.re "NN"))) (re.++ (re.* (re.* (str.to.re "MMM"))) (re.++ (re.union (re.+ (str.to.re "KKK")) (re.+ (str.to.re "L"))) (re.++ (re.+ (re.+ (str.to.re "JJ"))) (re.++ (re.* (re.+ (str.to.re "II"))) (re.++ (re.* (re.* (str.to.re "HH"))) (re.++ (re.union (re.union (str.to.re "E") (str.to.re "F")) (re.* (str.to.re "GG"))) (re.++ (re.* (re.union (str.to.re "CCC") (str.to.re "DDD"))) (re.++ (re.union (re.+ (str.to.re "AA")) (re.* (str.to.re "B"))) (re.++ (re.+ (re.* (str.to.re "z"))) (re.++ (re.* (re.* (str.to.re "y"))) (re.++ (re.union (re.* (str.to.re "www")) (re.* (str.to.re "xx"))) (re.++ (re.union (re.+ (str.to.re "uuu")) (re.* (str.to.re "vvv"))) (re.++ (re.* (re.union (str.to.re "sss") (str.to.re "t"))) (re.++ (re.* (re.union (str.to.re "qqq") (str.to.re "r"))) (re.++ (re.union (re.+ (str.to.re "ooo")) (re.+ (str.to.re "ppp"))) (re.++ (re.+ (re.+ (str.to.re "nnn"))) (re.++ (re.union (re.union (str.to.re "kkk") (str.to.re "l")) (re.* (str.to.re "m"))) (re.++ (re.+ (re.* (str.to.re "jj"))) (re.++ (re.* (re.* (str.to.re "ii"))) (re.++ (re.* (re.union (str.to.re "gg") (str.to.re "hh"))) (re.++ (re.+ (re.union (str.to.re "e") (str.to.re "ff"))) (re.++ (re.+ (re.+ (str.to.re "d"))) (re.++ (re.union (re.* (str.to.re "bb")) (re.+ (str.to.re "ccc"))) (re.++ (re.* (re.union (str.to.re "9") (str.to.re "aa"))) (re.++ (re.* (re.+ (str.to.re "888"))) (re.++ (re.* (re.+ (str.to.re "777"))) (re.++ (re.* (re.* (str.to.re "66"))) (re.++ (re.union (re.* (str.to.re "33")) (re.union (str.to.re "44") (str.to.re "5"))) (re.union (re.* (str.to.re "00")) (re.union (str.to.re "111") (str.to.re "222")))))))))))))))))))))))))))))))))))))))))))))))))))))
(check-sat)